50 995
482 257 286 517 404 713 45 924 873 160 1 838 40 58 676 627 766 862 405 923 379 461 612 133 813 97 908 165 996 623 220 298 157 723 144 48 129 148 35 644 632 272 1040 977 312 778 567 965 1 616 
485 326 248 421 322 795 43 845 955 252 9 901 122 94 738 574 715 882 367 984 299 433 682 72 874 138 856 145 995 529 199 277 97 719 242 107 122 70 98 600 645 267 972 895 213 748 487 923 29 674 
